\ENCODING=ISO-8859-1
\Problem name: inst_10

Maximize
 obj1: 78 x0 + 90 x1 + 29 x2 + 18 x3
Subject To
 c0:  40 x0 + 16 x1 + 88 x2 + 95 x3 <= 107
 c1:  36 x0 + 21 x1 + 86 x2 + 55 x3 <= 281
 c2:  15 x0 + 35 x1 + 11 x2 + 54 x3 <= 17
 c3:  97 x0 + 40 x1 + 90 x2 + 4 x3 <= 141
 c4:  6 x0 + 21 x1 + 40 x2 + 95 x3 <= 290
 c5:  14 x0 + 97 x1 + 66 x2 + 22 x3 <= 363
 c6:  83 x0 + 78 x1 + 21 x2 + 2 x3 <= 294
 c7:  3 x0 + 74 x1 + 5 x2 + 28 x3 <= 289
 c8:  49 x0 + 19 x1 + 54 x2 + 7 x3 <= 142
 c9:  25 x0 + 51 x1 + 31 x2 + 29 x3 <= 73
 c10: 15 x0 + 29 x1 + 33 x2 + 54 x3 <= 45
Bounds
 0 <= x0 <= 1
 0 <= x1 <= 1
 0 <= x2 <= 1
 0 <= x3 <= 1
Binaries
 x0  x1  x2  x3 
End
